NAME: random-21-9314
TYPE: TSP
COMMENT: size=21 seed=9314
DIMENSION: 44
EDGE_WEIGHT_TYPE: EUC_2D
NODE_COORD_SECTION
+0 398 611
-0 398 611
+1 606 175
-1 430 358
+2 900 491
-2 723 271
+3 355 854
-3 359 291
+4 281 969
-4 323 734
+5 606 854
-5 831 396
+6 833 133
-6 254 62
+7 746 280
-7 192 311
+8 500 864
-8 155 883
+9 282 671
-9 996 700
+10 538 311
-10 92 152
+11 294 558
-11 291 294
+12 536 690
-12 381 539
+13 854 96
-13 890 10
+14 379 624
-14 624 634
+15 733 871
-15 610 299
+16 231 642
-16 512 397
+17 523 120
-17 611 715
+18 130 465
-18 312 321
+19 474 802
-19 926 135
+20 740 467
-20 397 750
+21 696 869
-21 491 724
PRECEDENCE_SECTION
+0 -0
+1 -1
+2 -2
+3 -3
+4 -4
+5 -5
+6 -6
+7 -7
+8 -8
+9 -9
+10 -10
+11 -11
+12 -12
+13 -13
+14 -14
+15 -15
+16 -16
+17 -17
+18 -18
+19 -19
+20 -20
+21 -21
EOF
